c array.sh: path:     /data/qbf/qbf20/PCNF/incrementer-enc08-nonuniform-depth-32.qdimacs
c array.sh: name:     incrementer-enc08-nonuniform-depth-32
c array.sh: task:     74
c array.sh: host:     c3n23
c array.sh: uname:    Linux c3n23 4.15.0-135-generic #139-Ubuntu SMP Mon Jan 18 17:38:24 UTC 2021 x86_64 x86_64 x86_64 GNU/Linux
c array.sh: start:    Thu Feb 18 09:53:08 CET 2021
c array.sh: noturbo:  1
c array.sh: governor: 32 performance
c array.sh: tmp:      1%
c array.sh: unzipped: /tmp/local-unzipped-18838260-74-incrementer-enc08-nonuniform-depth-32.cnf
*** qbfcert: using tmp directory:
*** qbfcert:   /tmp
trace-size: 110103740
solving-res 20
proof-size: 69449563
cert-size: 111675
cert-header: aag 19720 19475 0 2 20
merged-header: p cnf 157037 352904
merged-size: 6268525
c ---- [ banner ] ------------------------------------------------------------
c
c KISSAT SAT Solver
c Copyright (c) 2019-2020 Armin Biere JKU Linz
c 
c Version 1.0.3 59813addcacc4d6fb880ebdd63685600475aa940
c gcc (Ubuntu 7.5.0-3ubuntu1~18.04) 7.5.0 -W -Wall -O3 -DNEMBEDDED -DNDEBUG -DNMETRICS -DNSTATISTICS
c Sun Feb 14 23:58:54 CET 2021 Linux cluster3 4.15.0-135-generic x86_64
c
c ---- [ parsing ] -----------------------------------------------------------
c
c opened and reading DIMACS file:
c 
c   /tmp/qbfcert_merged_cnf10763.cnf
c 
c parsed 'p cnf 157037 352904' header
c closing input after reading 6268525 bytes (6 MB)
c finished parsing after 0.11 seconds
c
c ---- [ solving ] -----------------------------------------------------------
c
c  seconds reductions redundant irredundant
c         MB   restarts    trail       variables
c          level  conflicts   glue          remaining
c
c *  0.11 22 0  0  0   0   0 0% 0 352902 33271 21%
c {  0.11 22 0  0  0   0   0 0% 0 352902 33271 21%
c i  0.11 22 2  0  0   1   0 0% 0 352902 33260 21%
c i  0.14 22 430  0  1 142 140 48% 2 352902 33217 21%
c -  0.16 13 326  1  1 300 287 39% 1 91717 33214 21%
c i  0.19  9 175  1 85 475 460 25% 2 91717 33209 21%
c i  0.19  9 159  1 98 502 485 24% 2 91717 33183 21%
c i  0.20  9 151  1 102 519 499 25% 2 91717 33129 21%
c i  0.22  9 121  1 157 648 624 22% 2 91717 33075 21%
c i  0.22  9 120  1 159 653 628 22% 2 91717 32902 21%
c i  0.23  9 102  1 176 761 733 21% 3 91717 32897 21%
c i  0.24  9 99  1 186 785 756 21% 3 91717 32896 21%
c i  0.24  9 98  1 186 787 757 21% 3 91717 32892 21%
c i  0.24  9 98  1 186 788 757 21% 3 91717 32891 21%
c i  0.25  9 90  1 207 860 826 20% 3 91717 32888 21%
c i  0.25  9 89  1 207 861 826 20% 3 91717 32867 21%
c -  0.26  9 85  2 220 900 808 19% 3 90741 32867 21%
c i  0.26  9 86  2 220 926 831 21% 3 90741 32841 21%
c i  0.26  9 89  2 220 1001 903 26% 3 90741 32804 21%
c }  0.26  9 89  2 220 1001 903 26% 3 90741 32804 21%
c
c  seconds reductions   redundant irredundant
c         MB   restarts      trail      variables
c          level   conflicts    glue         remaining
c
c [  0.26  9 0  2 220 1001 903 0% 0 90741 32804 21%
c a  0.27  9 0  2 220 1001 886 0% 0 90435 32788 21%
c O  0.27  9 5  2 220 1002 887 5% 1 90435 32788 21%
c i  0.28  9 42  2 220 1088 967 34% 3 90435 32650 21%
c i  0.28  9 41  2 220 1090 968 33% 3 90435 32649 21%
c -  0.33  9 49  3 220 1800 1478 42% 5 90016 32649 21%
c d  0.39 10 49  3 221 2505 2105 36% 7 80147 27728 18%
c d  0.40 10 49  3 221 2505 2099 36% 7 79568 27326 17%
c 3  0.40 10 49  3 221 2505 3049 36% 7 79568 27326 17%
c t  0.43 10 49  3 221 2505 3043 36% 7 73577 27165 17%
c f  0.67 11 49  3 221 2505 61466 36% 7 73530 26131 17%
c f  0.67 11 49  3 221 2505 61432 36% 7 73242 26131 17%
c u  0.73 11 49  3 221 2505 61181 36% 7 73242 26012 17%
c v  0.76 11 49  3 221 2505 61001 36% 7 73242 25950 17%
c w  0.86 11 49  3 221 2505 62282 36% 7 73133 25867 16%
c d  0.87 11 49  3 221 2505 56407 36% 7 68868 21659 14%
c d  0.88 11 49  3 221 2505 56364 36% 7 68720 21575 14%
c i  0.88 11 49  3 221 2505 56364 36% 7 68720 21575 14%
c i  0.90 11 52  3 221 2667 56517 34% 7 68720 21554 14%
c ]  0.91 11 48  3 222 2824 56672 30% 7 68720 21554 14%
c
c  seconds  reductions    redundant  irredundant
c         MB    restarts         trail      variables
c          level    conflicts       glue         remaining
c
c {  0.91 11 89  3 222 2824 56672 26% 3 68720 21554 14%
c i  0.91 11 83  3 238 2881 56722 25% 3 68720 21552 14%
c i  0.93 11 77  3 281 2999 56837 24% 3 68720 21509 14%
c -  0.94 10 77  4 282 3001 1896 24% 3 63693 21509 14%
c i  0.94  9 77  4 283 3003 1897 24% 3 63693 21479 14%
c a  0.94  9 77  4 283 3003 1885 24% 3 62693 21150 13%
c I  0.94  9 77  4 284 3004 1885 24% 3 62693 21150 13%
c i  0.94  9 77  4 284 3004 1885 24% 3 62693 21145 13%
c i  0.94  9 77  4 284 3005 1885 24% 3 62693 21144 13%
c i  0.96  9 70  4 336 3150 2023 23% 3 62693 21113 13%
c i  0.97  9 67  4 339 3203 2071 22% 3 62693 21078 13%
c i  0.97  9 66  4 341 3239 2104 22% 3 62693 21067 13%
c i  0.97  9 64  4 344 3281 2142 21% 3 62693 21066 13%
c i  0.98  9 61  4 360 3360 2216 21% 3 62693 21057 13%
c i  0.98  9 60  4 368 3382 2237 21% 3 62693 21056 13%
c i  0.99  9 56  4 400 3467 2314 20% 4 62693 21038 13%
c i  0.99  9 55  4 408 3489 2334 20% 4 62693 20854 13%
c i  0.99  9 55  4 415 3507 2350 19% 3 62693 20829 13%
c i  1.02  9 48  4 476 3758 2598 18% 4 62693 20819 13%
c i  1.02  9 46  4 500 3827 2658 17% 4 62693 20808 13%
c
c  seconds  reductions   redundant  irredundant
c         MB    restarts        trail      variables
c          level    conflicts      glue         remaining
c
c i  1.03  9 46  4 504 3839 2669 17% 4 62693 20803 13%
c i  1.03  9 45  4 516 3870 2695 17% 4 62693 20764 13%
c i  1.03  9 45  4 518 3874 2698 17% 4 62693 20752 13%
c i  1.03  9 45  4 528 3898 2718 17% 4 62693 20747 13%
c i  1.03  9 44  4 536 3918 2736 17% 4 62693 20737 13%
c i  1.03  9 44  4 536 3919 2736 17% 4 62693 20733 13%
c i  1.03  9 44  4 536 3920 2736 17% 4 62693 20727 13%
c i  1.04  9 44  4 539 3927 2740 17% 4 62693 20698 13%
c i  1.04  9 44  4 543 3936 2748 17% 4 62693 20685 13%
c i  1.04  9 43  4 584 4041 2844 16% 4 62693 20664 13%
c i  1.05  9 43  4 587 4048 2850 16% 4 62693 20631 13%
c }  1.05  9 42  4 588 4052 2850 16% 4 62693 19639 13%
c 0  1.05  9 42  4 588 4052 2850 16% 4 62693 19639 13%
c
c ---- [ result ] ------------------------------------------------------------
c
s UNSATISFIABLE
c
c ---- [ profiling ] ---------------------------------------------------------
c
c           0.52   49.50 %  simplify
c           0.50   48.23 %  probe
c           0.42   40.18 %  search
c           0.29   27.61 %  focused
c           0.24   22.74 %  failed
c           0.19   18.45 %  vivify
c           0.13   12.56 %  stable
c           0.11   10.31 %  parse
c           0.04    3.71 %  substitute
c           0.04    3.36 %  reduce
c           0.03    2.73 %  transitive
c           0.01    1.27 %  autarky
c           0.01    0.59 %  ternary
c =============================================
c           1.05  100.00 %  total
c
c ---- [ statistics ] --------------------------------------------------------
c
c conflicts:                             4052             3872.18 per second
c decisions:                            21379                5.28 per conflict
c propagations:                       8807739          8416868    per second
c reductions:                               4             1013    interval
c rephased:                                 2             2026    interval
c restarts:                               588                6.89 interval
c
c ---- [ resources ] ---------------------------------------------------------
c
c maximum-resident-set-size:         22769664 bytes         22 MB
c process-time:                             1s               1.05 seconds
c
c ---- [ shutting down ] -----------------------------------------------------
c
c exit 20
*** qbfcert: VALID
c array.sh: end:      Thu Feb 18 09:53:16 CET 2021
